experiment/zaligvinder/models/automatark/small/instance1048.smt2
(set-logic QF_SLIA)
(set-option :produce-models true)
(declare-const X String)
; \\[\\w{2}\\]
(assert (str.in_re X (re.++ (str.to_re "\u{5c}") (re.union (str.to_re "\u{5c}") (str.to_re "w") (str.to_re "{") (str.to_re "2") (str.to_re "}")) (str.to_re "\u{0a}"))))
; /\/AES\d+O\d+\.jsp\?[a-z0-9=\u{2b}\u{2f}]{20}/iU
(assert (str.in_re X (re.++ (str.to_re "//AES") (re.+ (re.range "0" "9")) (str.to_re "O") (re.+ (re.range "0" "9")) (str.to_re ".jsp?") ((_ re.loop 20 20) (re.union (re.range "a" "z") (re.range "0" "9") (str.to_re "=") (str.to_re "+") (str.to_re "/"))) (str.to_re "/iU\u{0a}"))))
; traffbest\x2Ebiz\d+\.compress.*sidebar\.activeshopper\.comaresflashdownloader\x2Ecom
(assert (str.in_re X (re.++ (str.to_re "traffbest.biz") (re.+ (re.range "0" "9")) (str.to_re ".compress") (re.* re.allchar) (str.to_re "sidebar.activeshopper.comaresflashdownloader.com\u{0a}"))))
; Apofis.*Port\x2E\s+\x2FNFO\x2CRegistered
(assert (not (str.in_re X (re.++ (str.to_re "Apofis") (re.* re.allchar) (str.to_re "Port.") (re.+ (re.union (str.to_re " ") (str.to_re "\u{09}") (str.to_re "\u{0a}") (str.to_re "\u{0c}") (str.to_re "\u{0d}"))) (str.to_re "/NFO,Registered\u{0a}")))))
(check-sat)
